c 1=W2_0 2=W2_1 3=W2_2 4=W2_3 5=W0_0 6=W0_1 7=W0_2 8=W0_3 9=x_0 10=x_1 11=x_2 12=x_3 13=W3_0 14=W3_1 15=W3_2 16=W3_3 17=y_0 18=y_1 19=y_2 20=y_3 21=W1_0 22=W1_1 23=W1_2 24=W1_3 25=z_0 26=z_1 27=z_2 28=z_3 
p cnf 28 88
1 2 3 4 0
-1 -2 0
-1 -3 0
-1 -4 0
-2 -3 0
-2 -4 0
-3 -4 0
2 0
5 6 7 8 0
-5 -6 0
-5 -7 0
-5 -8 0
-6 -7 0
-6 -8 0
-7 -8 0
9 10 11 12 0
-9 -10 0
-9 -11 0
-9 -12 0
-10 -11 0
-10 -12 0
-11 -12 0
-1 -9 5 0
-1 -10 6 0
-1 -11 7 0
-1 -12 8 0
-2 -9 6 0
-2 -10 7 0
-2 -11 8 0
-2 -12 5 0
-3 -9 7 0
-3 -10 8 0
-3 -11 5 0
-3 -12 6 0
-4 -9 8 0
-4 -10 5 0
-4 -11 6 0
-4 -12 7 0
13 14 15 16 0
-13 -14 0
-13 -15 0
-13 -16 0
-14 -15 0
-14 -16 0
-15 -16 0
14 0
17 18 19 20 0
-17 -18 0
-17 -19 0
-17 -20 0
-18 -19 0
-18 -20 0
-19 -20 0
-17 -13 5 0
-17 -14 6 0
-17 -15 7 0
-17 -16 8 0
-18 -13 6 0
-18 -14 7 0
-18 -15 8 0
-18 -16 5 0
-19 -13 7 0
-19 -14 8 0
-19 -15 5 0
-19 -16 6 0
-20 -13 8 0
-20 -14 5 0
-20 -15 6 0
-20 -16 7 0
21 22 23 24 0
-21 -22 0
-21 -23 0
-21 -24 0
-22 -23 0
-22 -24 0
-23 -24 0
25 26 27 28 0
-25 -26 0
-25 -27 0
-25 -28 0
-26 -27 0
-26 -28 0
-27 -28 0
-25 21 0
-26 21 0
-27 21 0
-28 21 0
21 0
